 IBRION = 6
 ML_FF_LMLFF = .TRUE.
 ML_FF_ISTART = 2
