cubic diamond
 3.58616
0.5 0.5 0.0
0.0 0.5 0.5
0.5 0.0 0.5
 C
 2
direct
0.0 0.0 0.0
0.25 0.25 0.25
